69
1 0 4
2 0 8
2 1 29
3 0 28
3 1 38
3 2 15
4 0 37
4 1 19
4 2 1
4 3 37
5 0 27
5 1 22
5 2 11
5 3 4
5 4 37
6 0 12
6 1 34
6 2 9
6 3 20
6 4 29
6 5 24
7 0 12
7 1 35
7 2 3
7 3 30
7 4 21
7 5 15
7 6 23
8 0 35
8 1 31
8 2 31
8 3 6
8 4 34
8 5 16
8 6 26
8 7 7
9 0 5
9 1 30
9 2 11
9 3 6
9 4 31
9 5 20
9 6 18
9 7 35
9 8 9
10 0 12
10 1 14
10 2 34
10 3 13
10 4 37
10 5 7
10 6 30
10 7 13
10 8 18
10 9 16
11 0 9
11 1 2
11 2 39
11 3 26
11 4 7
11 5 5
11 6 34
11 7 36
11 8 32
11 9 5
11 10 10
12 0 1
12 1 18
12 2 38
12 3 13
12 4 11
12 5 16
12 6 40
12 7 6
12 8 7
12 9 10
12 10 30
12 11 33
13 0 24
13 1 37
13 2 26
13 3 38
13 4 11
13 5 14
13 6 35
13 7 3
13 8 11
13 9 24
13 10 8
13 11 35
13 12 21
14 0 8
14 1 29
14 2 40
14 3 30
14 4 13
14 5 16
14 6 5
14 7 37
14 8 23
14 9 1
14 10 26
14 11 2
14 12 24
14 13 18
15 0 28
15 1 28
15 2 8
15 3 16
15 4 31
15 5 14
15 6 9
15 7 22
15 8 4
15 9 16
15 10 20
15 11 8
15 12 9
15 13 22
15 14 33
16 0 40
16 1 3
16 2 27
16 3 11
16 4 23
16 5 28
16 6 27
16 7 5
16 8 33
16 9 3
16 10 33
16 11 16
16 12 11
16 13 17
16 14 17
16 15 40
17 0 3
17 1 32
17 2 40
17 3 21
17 4 7
17 5 10
17 6 16
17 7 12
17 8 26
17 9 16
17 10 7
17 11 39
17 12 30
17 13 24
17 14 24
17 15 14
17 16 28
18 0 33
18 1 30
18 2 14
18 3 15
18 4 34
18 5 28
18 6 17
18 7 23
18 8 32
18 9 37
18 10 21
18 11 14
18 12 23
18 13 9
18 14 31
18 15 22
18 16 2
18 17 28
19 0 9
19 1 37
19 2 7
19 3 34
19 4 22
19 5 34
19 6 39
19 7 29
19 8 5
19 9 40
19 10 19
19 11 24
19 12 18
19 13 18
19 14 27
19 15 28
19 16 19
19 17 30
19 18 25
20 0 36
20 1 9
20 2 14
20 3 20
20 4 23
20 5 6
20 6 2
20 7 38
20 8 30
20 9 29
20 10 25
20 11 28
20 12 16
20 13 17
20 14 30
20 15 7
20 16 27
20 17 1
20 18 28
20 19 35
21 0 40
21 1 39
21 2 29
21 3 22
21 4 34
21 5 2
21 6 27
21 7 18
21 8 6
21 9 30
21 10 34
21 11 14
21 12 38
21 13 6
21 14 28
21 15 34
21 16 28
21 17 40
21 18 30
21 19 14
21 20 7
22 0 14
22 1 20
22 2 30
22 3 7
22 4 7
22 5 16
22 6 22
22 7 1
22 8 17
22 9 36
22 10 3
22 11 10
22 12 38
22 13 19
22 14 37
22 15 9
22 16 26
22 17 20
22 18 1
22 19 37
22 20 9
22 21 27
23 0 21
23 1 16
23 2 17
23 3 20
23 4 34
23 5 9
23 6 9
23 7 33
23 8 17
23 9 39
23 10 28
23 11 11
23 12 30
23 13 34
23 14 18
23 15 30
23 16 7
23 17 29
23 18 39
23 19 22
23 20 13
23 21 16
23 22 34
24 0 39
24 1 1
24 2 24
24 3 10
24 4 6
24 5 11
24 6 10
24 7 32
24 8 20
24 9 24
24 10 5
24 11 30
24 12 11
24 13 30
24 14 15
24 15 13
24 16 38
24 17 22
24 18 10
24 19 9
24 20 15
24 21 28
24 22 20
24 23 5
25 0 2
25 1 14
25 2 24
25 3 12
25 4 28
25 5 3
25 6 16
25 7 34
25 8 22
25 9 16
25 10 8
25 11 12
25 12 13
25 13 3
25 14 17
25 15 6
25 16 9
25 17 40
25 18 30
25 19 6
25 20 26
25 21 36
25 22 10
25 23 39
25 24 24
26 0 28
26 1 8
26 2 30
26 3 37
26 4 38
26 5 36
26 6 26
26 7 20
26 8 32
26 9 35
26 10 14
26 11 30
26 12 16
26 13 29
26 14 9
26 15 17
26 16 29
26 17 2
26 18 20
26 19 24
26 20 3
26 21 38
26 22 26
26 23 37
26 24 36
26 25 2
27 0 40
27 1 33
27 2 32
27 3 3
27 4 5
27 5 19
27 6 19
27 7 21
27 8 16
27 9 5
27 10 9
27 11 31
27 12 9
27 13 23
27 14 18
27 15 27
27 16 14
27 17 28
27 18 36
27 19 32
27 20 17
27 21 13
27 22 27
27 23 16
27 24 32
27 25 39
27 26 27
28 0 8
28 1 9
28 2 3
28 3 10
28 4 11
28 5 33
28 6 34
28 7 35
28 8 28
28 9 26
28 10 33
28 11 35
28 12 34
28 13 15
28 14 30
28 15 16
28 16 14
28 17 20
28 18 17
28 19 19
28 20 15
28 21 25
28 22 31
28 23 21
28 24 9
28 25 33
28 26 26
28 27 34
29 0 1
29 1 9
29 2 2
29 3 38
29 4 24
29 5 9
29 6 4
29 7 26
29 8 29
29 9 11
29 10 6
29 11 16
29 12 39
29 13 18
29 14 36
29 15 11
29 16 1
29 17 3
29 18 16
29 19 16
29 20 27
29 21 24
29 22 13
29 23 3
29 24 37
29 25 25
29 26 26
29 27 24
29 28 17
30 0 31
30 1 4
30 2 24
30 3 32
30 4 36
30 5 24
30 6 20
30 7 7
30 8 21
30 9 28
30 10 8
30 11 40
30 12 39
30 13 31
30 14 19
30 15 5
30 16 12
30 17 15
30 18 12
30 19 27
30 20 30
30 21 5
30 22 8
30 23 4
30 24 39
30 25 1
30 26 19
30 27 17
30 28 25
30 29 39
31 0 29
31 1 35
31 2 19
31 3 37
31 4 4
31 5 37
31 6 32
31 7 38
31 8 15
31 9 36
31 10 7
31 11 13
31 12 18
31 13 18
31 14 19
31 15 1
31 16 33
31 17 10
31 18 29
31 19 28
31 20 32
31 21 22
31 22 25
31 23 24
31 24 29
31 25 24
31 26 14
31 27 8
31 28 34
31 29 17
31 30 37
32 0 29
32 1 22
32 2 22
32 3 29
32 4 16
32 5 2
32 6 19
32 7 33
32 8 13
32 9 2
32 10 7
32 11 20
32 12 18
32 13 13
32 14 25
32 15 5
32 16 28
32 17 33
32 18 25
32 19 36
32 20 23
32 21 25
32 22 34
32 23 28
32 24 29
32 25 26
32 26 10
32 27 23
32 28 33
32 29 3
32 30 12
32 31 17
33 0 24
33 1 32
33 2 16
33 3 5
33 4 8
33 5 29
33 6 29
33 7 21
33 8 14
33 9 7
33 10 2
33 11 35
33 12 6
33 13 39
33 14 27
33 15 1
33 16 20
33 17 12
33 18 8
33 19 27
33 20 12
33 21 28
33 22 31
33 23 27
33 24 35
33 25 17
33 26 23
33 27 23
33 28 25
33 29 33
33 30 29
33 31 35
33 32 19
34 0 9
34 1 27
34 2 26
34 3 36
34 4 35
34 5 23
34 6 8
34 7 12
34 8 26
34 9 36
34 10 29
34 11 16
34 12 32
34 13 28
34 14 36
34 15 22
34 16 21
34 17 34
34 18 12
34 19 8
34 20 30
34 21 33
34 22 32
34 23 18
34 24 3
34 25 1
34 26 10
34 27 17
34 28 13
34 29 5
34 30 18
34 31 30
34 32 12
34 33 15
35 0 34
35 1 7
35 2 20
35 3 1
35 4 26
35 5 29
35 6 18
35 7 24
35 8 16
35 9 21
35 10 6
35 11 6
35 12 38
35 13 26
35 14 2
35 15 2
35 16 18
35 17 3
35 18 16
35 19 10
35 20 36
35 21 6
35 22 8
35 23 12
35 24 15
35 25 25
35 26 16
35 27 37
35 28 36
35 29 33
35 30 15
35 31 26
35 32 21
35 33 19
35 34 38
36 0 16
36 1 5
36 2 26
36 3 20
36 4 2
36 5 4
36 6 21
36 7 17
36 8 14
36 9 37
36 10 34
36 11 27
36 12 39
36 13 6
36 14 19
36 15 35
36 16 18
36 17 7
36 18 20
36 19 34
36 20 33
36 21 19
36 22 22
36 23 11
36 24 3
36 25 14
36 26 17
36 27 15
36 28 6
36 29 33
36 30 7
36 31 27
36 32 40
36 33 11
36 34 5
36 35 26
37 0 21
37 1 27
37 2 26
37 3 36
37 4 31
37 5 33
37 6 29
37 7 10
37 8 6
37 9 22
37 10 12
37 11 4
37 12 14
37 13 9
37 14 5
37 15 15
37 16 5
37 17 32
37 18 33
37 19 18
37 20 20
37 21 10
37 22 4
37 23 37
37 24 22
37 25 39
37 26 8
37 27 8
37 28 13
37 29 2
37 30 21
37 31 23
37 32 5
37 33 29
37 34 24
37 35 27
37 36 21
38 0 38
38 1 34
38 2 30
38 3 27
38 4 40
38 5 1
38 6 17
38 7 34
38 8 31
38 9 11
38 10 19
38 11 9
38 12 8
38 13 36
38 14 31
38 15 12
38 16 7
38 17 20
38 18 40
38 19 34
38 20 14
38 21 10
38 22 2
38 23 20
38 24 21
38 25 2
38 26 24
38 27 7
38 28 11
38 29 3
38 30 18
38 31 28
38 32 29
38 33 5
38 34 1
38 35 33
38 36 32
38 37 10
39 0 29
39 1 10
39 2 30
39 3 8
39 4 36
39 5 3
39 6 38
39 7 14
39 8 7
39 9 18
39 10 36
39 11 38
39 12 1
39 13 32
39 14 10
39 15 14
39 16 23
39 17 31
39 18 36
39 19 2
39 20 29
39 21 25
39 22 37
39 23 7
39 24 25
39 25 34
39 26 28
39 27 12
39 28 31
39 29 10
39 30 11
39 31 39
39 32 6
39 33 24
39 34 4
39 35 19
39 36 21
39 37 38
39 38 33
40 0 12
40 1 26
40 2 36
40 3 8
40 4 28
40 5 29
40 6 14
40 7 34
40 8 5
40 9 38
40 10 34
40 11 15
40 12 21
40 13 17
40 14 16
40 15 22
40 16 28
40 17 3
40 18 14
40 19 13
40 20 12
40 21 17
40 22 20
40 23 18
40 24 4
40 25 2
40 26 3
40 27 30
40 28 22
40 29 8
40 30 34
40 31 34
40 32 37
40 33 6
40 34 10
40 35 30
40 36 18
40 37 1
40 38 2
40 39 6
41 0 15
41 1 40
41 2 13
41 3 1
41 4 16
41 5 24
41 6 37
41 7 12
41 8 27
41 9 2
41 10 29
41 11 40
41 12 27
41 13 6
41 14 17
41 15 9
41 16 33
41 17 40
41 18 21
41 19 17
41 20 1
41 21 27
41 22 35
41 23 12
41 24 26
41 25 22
41 26 38
41 27 2
41 28 28
41 29 38
41 30 15
41 31 34
41 32 11
41 33 8
41 34 3
41 35 31
41 36 4
41 37 22
41 38 16
41 39 22
41 40 27
42 0 8
42 1 11
42 2 34
42 3 37
42 4 22
42 5 22
42 6 3
42 7 40
42 8 22
42 9 29
42 10 27
42 11 5
42 12 17
42 13 30
42 14 22
42 15 33
42 16 18
42 17 34
42 18 15
42 19 3
42 20 20
42 21 11
42 22 7
42 23 37
42 24 20
42 25 27
42 26 8
42 27 30
42 28 29
42 29 12
42 30 27
42 31 11
42 32 13
42 33 9
42 34 29
42 35 1
42 36 31
42 37 21
42 38 2
42 39 24
42 40 10
42 41 35
43 0 26
43 1 4
43 2 26
43 3 3
43 4 2
43 5 36
43 6 5
43 7 20
43 8 25
43 9 38
43 10 27
43 11 16
43 12 38
43 13 30
43 14 8
43 15 31
43 16 23
43 17 31
43 18 31
43 19 31
43 20 4
43 21 19
43 22 17
43 23 13
43 24 2
43 25 30
43 26 13
43 27 20
43 28 25
43 29 2
43 30 20
43 31 39
43 32 5
43 33 25
43 34 6
43 35 33
43 36 4
43 37 38
43 38 18
43 39 25
43 40 9
43 41 26
43 42 9
44 0 29
44 1 15
44 2 35
44 3 40
44 4 22
44 5 25
44 6 8
44 7 17
44 8 39
44 9 4
44 10 2
44 11 20
44 12 7
44 13 31
44 14 3
44 15 40
44 16 18
44 17 28
44 18 28
44 19 18
44 20 9
44 21 13
44 22 7
44 23 11
44 24 30
44 25 38
44 26 3
44 27 31
44 28 22
44 29 4
44 30 36
44 31 27
44 32 29
44 33 38
44 34 18
44 35 32
44 36 4
44 37 22
44 38 5
44 39 10
44 40 22
44 41 31
44 42 39
44 43 19
45 0 23
45 1 9
45 2 26
45 3 31
45 4 31
45 5 16
45 6 8
45 7 37
45 8 18
45 9 36
45 10 20
45 11 28
45 12 29
45 13 21
45 14 29
45 15 37
45 16 21
45 17 22
45 18 13
45 19 6
45 20 37
45 21 17
45 22 8
45 23 23
45 24 33
45 25 36
45 26 40
45 27 34
45 28 1
45 29 35
45 30 33
45 31 9
45 32 3
45 33 4
45 34 6
45 35 27
45 36 22
45 37 3
45 38 39
45 39 15
45 40 19
45 41 30
45 42 38
45 43 18
45 44 10
46 0 16
46 1 9
46 2 38
46 3 6
46 4 2
46 5 31
46 6 15
46 7 14
46 8 28
46 9 32
46 10 16
46 11 34
46 12 18
46 13 7
46 14 18
46 15 7
46 16 34
46 17 10
46 18 10
46 19 10
46 20 11
46 21 27
46 22 31
46 23 38
46 24 4
46 25 19
46 26 27
46 27 23
46 28 40
46 29 37
46 30 33
46 31 31
46 32 32
46 33 4
46 34 5
46 35 35
46 36 14
46 37 30
46 38 19
46 39 29
46 40 26
46 41 8
46 42 9
46 43 18
46 44 4
46 45 10
47 0 40
47 1 20
47 2 23
47 3 11
47 4 34
47 5 8
47 6 30
47 7 8
47 8 1
47 9 30
47 10 35
47 11 31
47 12 5
47 13 35
47 14 34
47 15 14
47 16 8
47 17 5
47 18 12
47 19 21
47 20 35
47 21 10
47 22 10
47 23 31
47 24 38
47 25 5
47 26 6
47 27 3
47 28 36
47 29 17
47 30 35
47 31 19
47 32 4
47 33 21
47 34 15
47 35 32
47 36 31
47 37 36
47 38 24
47 39 39
47 40 8
47 41 24
47 42 29
47 43 31
47 44 12
47 45 29
47 46 22
48 0 36
48 1 39
48 2 38
48 3 38
48 4 27
48 5 24
48 6 20
48 7 20
48 8 34
48 9 23
48 10 9
48 11 38
48 12 10
48 13 1
48 14 20
48 15 28
48 16 6
48 17 30
48 18 13
48 19 37
48 20 36
48 21 14
48 22 23
48 23 31
48 24 34
48 25 31
48 26 21
48 27 30
48 28 32
48 29 1
48 30 3
48 31 10
48 32 24
48 33 22
48 34 2
48 35 40
48 36 8
48 37 28
48 38 31
48 39 32
48 40 35
48 41 12
48 42 29
48 43 18
48 44 4
48 45 32
48 46 32
48 47 16
49 0 3
49 1 15
49 2 34
49 3 5
49 4 14
49 5 8
49 6 8
49 7 6
49 8 32
49 9 35
49 10 12
49 11 29
49 12 36
49 13 7
49 14 40
49 15 36
49 16 4
49 17 5
49 18 36
49 19 39
49 20 22
49 21 15
49 22 29
49 23 25
49 24 40
49 25 3
49 26 32
49 27 33
49 28 39
49 29 2
49 30 5
49 31 23
49 32 36
49 33 29
49 34 14
49 35 39
49 36 39
49 37 13
49 38 34
49 39 13
49 40 11
49 41 5
49 42 35
49 43 5
49 44 11
49 45 27
49 46 1
49 47 9
49 48 6
50 0 27
50 1 37
50 2 15
50 3 20
50 4 22
50 5 28
50 6 6
50 7 1
50 8 38
50 9 21
50 10 31
50 11 21
50 12 1
50 13 22
50 14 21
50 15 23
50 16 29
50 17 33
50 18 24
50 19 40
50 20 35
50 21 5
50 22 20
50 23 24
50 24 24
50 25 29
50 26 35
50 27 28
50 28 16
50 29 19
50 30 22
50 31 40
50 32 34
50 33 38
50 34 33
50 35 18
50 36 32
50 37 13
50 38 7
50 39 36
50 40 32
50 41 6
50 42 19
50 43 7
50 44 15
50 45 24
50 46 4
50 47 27
50 48 18
50 49 13
51 0 39
51 1 24
51 2 3
51 3 20
51 4 21
51 5 14
51 6 29
51 7 13
51 8 13
51 9 34
51 10 40
51 11 1
51 12 30
51 13 30
51 14 33
51 15 28
51 16 31
51 17 34
51 18 13
51 19 34
51 20 40
51 21 40
51 22 10
51 23 29
51 24 19
51 25 23
51 26 2
51 27 34
51 28 27
51 29 39
51 30 38
51 31 21
51 32 2
51 33 7
51 34 8
51 35 33
51 36 27
51 37 35
51 38 5
51 39 20
51 40 10
51 41 34
51 42 35
51 43 39
51 44 7
51 45 33
51 46 12
51 47 3
51 48 20
51 49 25
51 50 27
52 0 23
52 1 15
52 2 27
52 3 28
52 4 10
52 5 25
52 6 34
52 7 6
52 8 9
52 9 1
52 10 27
52 11 9
52 12 37
52 13 18
52 14 31
52 15 19
52 16 27
52 17 26
52 18 23
52 19 26
52 20 37
52 21 23
52 22 23
52 23 4
52 24 29
52 25 19
52 26 14
52 27 13
52 28 24
52 29 40
52 30 24
52 31 36
52 32 6
52 33 15
52 34 19
52 35 6
52 36 12
52 37 38
52 38 9
52 39 36
52 40 19
52 41 8
52 42 36
52 43 5
52 44 18
52 45 20
52 46 23
52 47 34
52 48 29
52 49 14
52 50 14
52 51 7
53 0 16
53 1 16
53 2 2
53 3 11
53 4 8
53 5 25
53 6 22
53 7 9
53 8 35
53 9 38
53 10 36
53 11 7
53 12 7
53 13 11
53 14 31
53 15 3
53 16 13
53 17 25
53 18 8
53 19 20
53 20 20
53 21 20
53 22 3
53 23 10
53 24 29
53 25 4
53 26 8
53 27 4
53 28 9
53 29 37
53 30 1
53 31 20
53 32 13
53 33 36
53 34 38
53 35 18
53 36 7
53 37 29
53 38 8
53 39 22
53 40 38
53 41 18
53 42 12
53 43 40
53 44 17
53 45 23
53 46 40
53 47 15
53 48 2
53 49 32
53 50 6
53 51 4
53 52 33
54 0 14
54 1 16
54 2 31
54 3 21
54 4 25
54 5 9
54 6 22
54 7 16
54 8 26
54 9 31
54 10 14
54 11 5
54 12 7
54 13 37
54 14 2
54 15 30
54 16 38
54 17 37
54 18 37
54 19 27
54 20 4
54 21 27
54 22 35
54 23 14
54 24 30
54 25 5
54 26 13
54 27 37
54 28 20
54 29 25
54 30 24
54 31 39
54 32 7
54 33 4
54 34 20
54 35 8
54 36 36
54 37 19
54 38 5
54 39 31
54 40 29
54 41 19
54 42 10
54 43 26
54 44 10
54 45 40
54 46 29
54 47 28
54 48 20
54 49 30
54 50 40
54 51 9
54 52 35
54 53 18
55 0 12
55 1 19
55 2 10
55 3 1
55 4 14
55 5 21
55 6 26
55 7 29
55 8 26
55 9 35
55 10 13
55 11 2
55 12 26
55 13 2
55 14 38
55 15 20
55 16 8
55 17 28
55 18 13
55 19 5
55 20 13
55 21 20
55 22 33
55 23 1
55 24 15
55 25 39
55 26 15
55 27 17
55 28 13
55 29 16
55 30 37
55 31 37
55 32 29
55 33 31
55 34 16
55 35 37
55 36 3
55 37 36
55 38 33
55 39 26
55 40 23
55 41 11
55 42 2
55 43 38
55 44 33
55 45 31
55 46 3
55 47 39
55 48 17
55 49 26
55 50 17
55 51 10
55 52 15
55 53 22
55 54 14
56 0 3
56 1 36
56 2 1
56 3 18
56 4 31
56 5 10
56 6 4
56 7 24
56 8 28
56 9 13
56 10 4
56 11 13
56 12 32
56 13 6
56 14 2
56 15 12
56 16 38
56 17 7
56 18 7
56 19 12
56 20 37
56 21 35
56 22 31
56 23 27
56 24 3
56 25 33
56 26 28
56 27 27
56 28 17
56 29 27
56 30 13
56 31 35
56 32 34
56 33 9
56 34 7
56 35 11
56 36 11
56 37 36
56 38 28
56 39 12
56 40 7
56 41 3
56 42 23
56 43 29
56 44 32
56 45 8
56 46 13
56 47 33
56 48 3
56 49 28
56 50 6
56 51 25
56 52 33
56 53 34
56 54 30
56 55 4
57 0 36
57 1 20
57 2 36
57 3 17
57 4 17
57 5 34
57 6 12
57 7 37
57 8 2
57 9 8
57 10 7
57 11 39
57 12 11
57 13 39
57 14 17
57 15 17
57 16 31
57 17 21
57 18 2
57 19 40
57 20 23
57 21 26
57 22 32
57 23 26
57 24 25
57 25 29
57 26 36
57 27 10
57 28 26
57 29 36
57 30 34
57 31 29
57 32 37
57 33 26
57 34 28
57 35 21
57 36 35
57 37 36
57 38 18
57 39 14
57 40 33
57 41 15
57 42 18
57 43 8
57 44 19
57 45 29
57 46 33
57 47 8
57 48 21
57 49 29
57 50 16
57 51 38
57 52 31
57 53 30
57 54 25
57 55 13
57 56 34
58 0 6
58 1 19
58 2 31
58 3 38
58 4 5
58 5 13
58 6 26
58 7 12
58 8 18
58 9 12
58 10 10
58 11 22
58 12 1
58 13 23
58 14 17
58 15 8
58 16 5
58 17 23
58 18 2
58 19 18
58 20 35
58 21 6
58 22 26
58 23 15
58 24 8
58 25 3
58 26 33
58 27 16
58 28 15
58 29 25
58 30 28
58 31 4
58 32 37
58 33 34
58 34 9
58 35 12
58 36 21
58 37 32
58 38 32
58 39 14
58 40 39
58 41 7
58 42 10
58 43 32
58 44 21
58 45 31
58 46 22
58 47 15
58 48 13
58 49 29
58 50 37
58 51 32
58 52 18
58 53 29
58 54 19
58 55 25
58 56 31
58 57 15
59 0 5
59 1 9
59 2 39
59 3 19
59 4 31
59 5 6
59 6 6
59 7 8
59 8 33
59 9 22
59 10 38
59 11 27
59 12 27
59 13 39
59 14 3
59 15 14
59 16 16
59 17 37
59 18 30
59 19 29
59 20 10
59 21 10
59 22 18
59 23 40
59 24 17
59 25 33
59 26 31
59 27 16
59 28 1
59 29 14
59 30 23
59 31 36
59 32 25
59 33 8
59 34 22
59 35 11
59 36 24
59 37 23
59 38 35
59 39 15
59 40 3
59 41 18
59 42 36
59 43 24
59 44 13
59 45 40
59 46 12
59 47 36
59 48 31
59 49 26
59 50 40
59 51 9
59 52 5
59 53 32
59 54 15
59 55 34
59 56 14
59 57 30
59 58 13
60 0 39
60 1 3
60 2 30
60 3 33
60 4 40
60 5 5
60 6 36
60 7 15
60 8 34
60 9 8
60 10 12
60 11 1
60 12 13
60 13 21
60 14 34
60 15 20
60 16 33
60 17 12
60 18 25
60 19 32
60 20 11
60 21 19
60 22 18
60 23 14
60 24 22
60 25 26
60 26 16
60 27 10
60 28 20
60 29 19
60 30 7
60 31 25
60 32 21
60 33 33
60 34 24
60 35 32
60 36 7
60 37 21
60 38 34
60 39 5
60 40 9
60 41 22
60 42 33
60 43 10
60 44 18
60 45 28
60 46 9
60 47 17
60 48 25
60 49 19
60 50 32
60 51 10
60 52 32
60 53 24
60 54 1
60 55 29
60 56 32
60 57 7
60 58 15
60 59 22
61 0 17
61 1 23
61 2 23
61 3 6
61 4 35
61 5 33
61 6 27
61 7 31
61 8 15
61 9 24
61 10 39
61 11 25
61 12 40
61 13 12
61 14 33
61 15 40
61 16 1
61 17 1
61 18 3
61 19 30
61 20 29
61 21 39
61 22 27
61 23 29
61 24 40
61 25 5
61 26 26
61 27 24
61 28 16
61 29 29
61 30 10
61 31 34
61 32 23
61 33 10
61 34 21
61 35 14
61 36 39
61 37 32
61 38 3
61 39 35
61 40 23
61 41 39
61 42 1
61 43 32
61 44 30
61 45 37
61 46 15
61 47 8
61 48 25
61 49 32
61 50 10
61 51 37
61 52 27
61 53 6
61 54 40
61 55 24
61 56 3
61 57 31
61 58 24
61 59 3
61 60 18
62 0 3
62 1 12
62 2 29
62 3 38
62 4 35
62 5 11
62 6 14
62 7 12
62 8 25
62 9 31
62 10 40
62 11 40
62 12 40
62 13 38
62 14 24
62 15 18
62 16 15
62 17 19
62 18 16
62 19 21
62 20 38
62 21 19
62 22 22
62 23 10
62 24 14
62 25 19
62 26 21
62 27 8
62 28 1
62 29 25
62 30 27
62 31 7
62 32 18
62 33 34
62 34 31
62 35 39
62 36 19
62 37 4
62 38 1
62 39 14
62 40 8
62 41 33
62 42 29
62 43 29
62 44 28
62 45 13
62 46 36
62 47 36
62 48 7
62 49 16
62 50 17
62 51 4
62 52 3
62 53 25
62 54 20
62 55 37
62 56 40
62 57 8
62 58 10
62 59 4
62 60 36
62 61 10
63 0 14
63 1 10
63 2 24
63 3 30
63 4 18
63 5 33
63 6 28
63 7 26
63 8 35
63 9 35
63 10 13
63 11 39
63 12 9
63 13 35
63 14 24
63 15 30
63 16 16
63 17 3
63 18 11
63 19 7
63 20 21
63 21 8
63 22 12
63 23 10
63 24 23
63 25 7
63 26 13
63 27 4
63 28 24
63 29 11
63 30 38
63 31 9
63 32 12
63 33 13
63 34 26
63 35 29
63 36 38
63 37 35
63 38 24
63 39 18
63 40 34
63 41 18
63 42 29
63 43 37
63 44 5
63 45 9
63 46 29
63 47 9
63 48 21
63 49 21
63 50 36
63 51 33
63 52 5
63 53 25
63 54 6
63 55 38
63 56 24
63 57 40
63 58 16
63 59 11
63 60 12
63 61 22
63 62 4
64 0 37
64 1 36
64 2 11
64 3 37
64 4 33
64 5 6
64 6 7
64 7 27
64 8 9
64 9 13
64 10 33
64 11 32
64 12 32
64 13 22
64 14 19
64 15 18
64 16 25
64 17 13
64 18 37
64 19 21
64 20 1
64 21 30
64 22 18
64 23 22
64 24 28
64 25 11
64 26 8
64 27 40
64 28 20
64 29 38
64 30 14
64 31 26
64 32 32
64 33 24
64 34 31
64 35 40
64 36 32
64 37 19
64 38 31
64 39 27
64 40 14
64 41 40
64 42 10
64 43 26
64 44 22
64 45 33
64 46 27
64 47 16
64 48 3
64 49 18
64 50 12
64 51 32
64 52 9
64 53 1
64 54 22
64 55 23
64 56 14
64 57 2
64 58 36
64 59 19
64 60 18
64 61 36
64 62 10
64 63 3
65 0 29
65 1 36
65 2 25
65 3 21
65 4 22
65 5 37
65 6 4
65 7 24
65 8 10
65 9 33
65 10 2
65 11 35
65 12 13
65 13 21
65 14 28
65 15 17
65 16 11
65 17 36
65 18 19
65 19 12
65 20 13
65 21 18
65 22 33
65 23 22
65 24 1
65 25 1
65 26 36
65 27 30
65 28 15
65 29 8
65 30 10
65 31 39
65 32 17
65 33 6
65 34 3
65 35 4
65 36 19
65 37 31
65 38 20
65 39 20
65 40 33
65 41 34
65 42 34
65 43 25
65 44 37
65 45 15
65 46 24
65 47 15
65 48 3
65 49 6
65 50 23
65 51 26
65 52 35
65 53 15
65 54 33
65 55 32
65 56 19
65 57 37
65 58 4
65 59 4
65 60 10
65 61 18
65 62 11
65 63 2
65 64 35
66 0 23
66 1 17
66 2 11
66 3 37
66 4 27
66 5 19
66 6 18
66 7 31
66 8 6
66 9 4
66 10 15
66 11 6
66 12 3
66 13 40
66 14 7
66 15 29
66 16 35
66 17 14
66 18 12
66 19 24
66 20 38
66 21 39
66 22 25
66 23 21
66 24 38
66 25 33
66 26 8
66 27 14
66 28 28
66 29 21
66 30 35
66 31 30
66 32 2
66 33 10
66 34 15
66 35 23
66 36 19
66 37 10
66 38 19
66 39 6
66 40 30
66 41 19
66 42 36
66 43 13
66 44 12
66 45 22
66 46 24
66 47 15
66 48 35
66 49 24
66 50 17
66 51 30
66 52 38
66 53 3
66 54 9
66 55 18
66 56 28
66 57 16
66 58 35
66 59 21
66 60 17
66 61 37
66 62 35
66 63 30
66 64 4
66 65 36
67 0 17
67 1 35
67 2 5
67 3 2
67 4 16
67 5 25
67 6 23
67 7 9
67 8 5
67 9 21
67 10 21
67 11 10
67 12 8
67 13 17
67 14 5
67 15 22
67 16 35
67 17 21
67 18 29
67 19 25
67 20 21
67 21 18
67 22 3
67 23 15
67 24 7
67 25 30
67 26 15
67 27 19
67 28 10
67 29 4
67 30 31
67 31 35
67 32 4
67 33 15
67 34 23
67 35 22
67 36 31
67 37 37
67 38 9
67 39 25
67 40 5
67 41 6
67 42 39
67 43 39
67 44 11
67 45 38
67 46 20
67 47 14
67 48 5
67 49 20
67 50 2
67 51 16
67 52 7
67 53 37
67 54 7
67 55 3
67 56 5
67 57 17
67 58 20
67 59 29
67 60 34
67 61 34
67 62 23
67 63 10
67 64 23
67 65 9
67 66 28
68 0 15
68 1 31
68 2 12
68 3 1
68 4 13
68 5 37
68 6 9
68 7 22
68 8 32
68 9 29
68 10 5
68 11 32
68 12 14
68 13 1
68 14 40
68 15 6
68 16 25
68 17 15
68 18 1
68 19 8
68 20 35
68 21 31
68 22 32
68 23 33
68 24 5
68 25 4
68 26 15
68 27 12
68 28 2
68 29 17
68 30 22
68 31 9
68 32 13
68 33 7
68 34 35
68 35 33
68 36 34
68 37 20
68 38 33
68 39 28
68 40 17
68 41 39
68 42 26
68 43 25
68 44 24
68 45 36
68 46 20
68 47 19
68 48 22
68 49 35
68 50 40
68 51 17
68 52 31
68 53 38
68 54 17
68 55 17
68 56 18
68 57 36
68 58 30
68 59 3
68 60 28
68 61 26
68 62 33
68 63 25
68 64 38
68 65 4
68 66 4
68 67 39
